# Objective value = 6956.28
I_0_0 688
I_0_1 980
I_0_2 896
I_0_3 801
I_0_4 763
I_0_5 792
I_0_6 1084
I_1_0 87
I_1_1 0
I_1_2 87
I_1_3 0
I_1_4 87
I_1_5 87
I_1_6 0
I_2_0 166
I_2_1 83
I_2_2 0
I_2_3 166
I_2_4 1.6600000000000003e+02
I_2_5 83
I_2_6 0
I_3_0 26
I_3_1 2.8865798640254070e-15
I_3_2 2.5999999999999996e+01
I_3_3 0
I_3_4 2.5999999999999996e+01
I_3_5 26
I_3_6 0
I_4_0 42
I_4_1 2.1000000000000014e+01
I_4_2 1.4210854715202004e-14
I_4_3 4.1999999999999986e+01
I_4_4 42
I_4_5 2.1000000000000004e+01
I_4_6 0
I_5_0 75
I_5_1 0
I_5_2 75
I_5_3 7.4999999999999986e+01
I_5_4 1.2490009027033011e-14
I_5_5 75
I_5_6 0
q_1_0 0
q_1_1 174
q_1_2 0
q_1_3 174
q_1_4 87
q_1_5 0
q_2_0 0
q_2_1 1.4210854715202004e-14
q_2_2 249
q_2_3 8.3000000000000028e+01
q_2_4 -2.8421709430404007e-14
q_2_5 0
q_3_0 2.8865798640254070e-15
q_3_1 5.1999999999999993e+01
q_3_2 3.5527136788005009e-15
q_3_3 52
q_3_4 2.6000000000000004e+01
q_3_5 0
q_4_0 1.3405943022348765e-14
q_4_1 0
q_4_2 6.2999999999999972e+01
q_4_3 2.1000000000000004e+01
q_4_4 0
q_4_5 0
q_5_0 0
q_5_1 150
q_5_2 7.4999999999999986e+01
q_5_3 2.6700863742235015e-14
q_5_4 150
q_5_5 0
y_0_0 5.5511151231257827e-17
y_0_1 1
y_0_2 1
y_0_3 1
y_0_4 1
y_0_5 0
y_1_0 0
y_1_1 1
y_1_2 0
y_1_3 1
y_1_4 1
y_1_5 0
y_2_0 0
y_2_1 5.5511151231257827e-17
y_2_2 1
y_2_3 1
y_2_4 0
y_2_5 0
y_3_0 1.1102230246251565e-16
y_3_1 9.9999999999999989e-01
y_3_2 0
y_3_3 9.9999999999999989e-01
y_3_4 1
y_3_5 0
y_4_0 6.38378239159465e-16
y_4_1 5.5511151231257827e-17
y_4_2 9.9999999999999978e-01
y_4_3 1
y_4_4 0
y_4_5 0
y_5_0 0
y_5_1 1
y_5_2 9.9999999999999989e-01
y_5_3 1.6653345369377348e-16
y_5_4 1
y_5_5 0
x_0_1_0 0
x_0_1_1 9.9999999999999978e-01
x_0_1_2 0
x_0_1_3 1
x_0_1_4 1
x_0_1_5 0
x_0_2_0 0
x_0_2_1 0
x_0_2_2 9.9999999999999989e-01
x_0_2_3 0
x_0_2_4 0
x_0_2_5 0
x_0_3_0 7.7715611723760958e-16
x_0_3_1 1
x_0_3_2 1.6653345369377348e-16
x_0_3_3 1
x_0_3_4 1
x_0_3_5 0
x_0_4_0 0
x_0_4_1 0
x_0_4_2 0
x_0_4_3 0
x_0_4_4 0
x_0_4_5 0
x_0_5_0 -6.38378239159465e-16
x_0_5_1 1.6653345369377348e-16
x_0_5_2 1
x_0_5_3 1.6653345369377348e-16
x_0_5_4 0
x_0_5_5 0
x_1_2_0 0
x_1_2_1 0
x_1_2_2 0
x_1_2_3 0
x_1_2_4 0
x_1_2_5 0
x_1_3_0 0
x_1_3_1 0
x_1_3_2 0
x_1_3_3 0
x_1_3_4 0
x_1_3_5 0
x_1_4_0 0
x_1_4_1 1.1102230246251565e-16
x_1_4_2 0
x_1_4_3 1
x_1_4_4 0
x_1_4_5 0
x_1_5_0 0
x_1_5_1 1
x_1_5_2 0
x_1_5_3 0
x_1_5_4 1
x_1_5_5 0
x_2_3_0 -6.38378239159465e-16
x_2_3_1 0
x_2_3_2 -5.5511151231257827e-17
x_2_3_3 9.9999999999999978e-01
x_2_3_4 0
x_2_3_5 0
x_2_4_0 6.38378239159465e-16
x_2_4_1 -5.5511151231257827e-17
x_2_4_2 9.9999999999999978e-01
x_2_4_3 1
x_2_4_4 0
x_2_4_5 0
x_2_5_0 0
x_2_5_1 5.5511151231257827e-17
x_2_5_2 0
x_2_5_3 1.6653345369377348e-16
x_2_5_4 0
x_2_5_5 0
x_3_4_0 0
x_3_4_1 0
x_3_4_2 0
x_3_4_3 0
x_3_4_4 0
x_3_4_5 0
x_3_5_0 0
x_3_5_1 9.9999999999999978e-01
x_3_5_2 0
x_3_5_3 0
x_3_5_4 1
x_3_5_5 0
x_4_5_0 6.38378239159465e-16
x_4_5_1 0
x_4_5_2 9.9999999999999956e-01
x_4_5_3 0
x_4_5_4 0
x_4_5_5 0
